55018
1 33 7621
33 42 4806
42 11 1343
11 45 436
45 2 787
2 52 597
52 16 738
16 14 907
14 9 470
9 12 723
12 18 767
18 4 606
4 30 380
30 47 944
47 54 490
54 34 400
34 53 395
53 26 1236
26 55 397
55 28 487
28 6 404
6 3 384
3 43 1096
43 13 790
13 51 644
51 40 1041
40 7 1176
7 37 516
37 20 713
20 50 763
50 24 868
24 38 801
38 8 367
8 44 383
44 32 675
32 35 966
35 5 322
5 41 713
41 19 1369
19 49 934
49 48 761
48 17 415
17 23 618
23 21 176
21 29 515
29 22 543
22 10 117
10 46 1001
46 36 402
36 39 502
39 15 484
15 25 1148
25 31 299
31 27 4459
27 1 4123
